#BEGIN: [Fri Oct 28 11:36:59 2022]
#HOST: mini14.local
#TIMELIMIT: 10800
#MEMLIMIT: 0
#FREQ: 10
#SOLVER: anSolverAsp221027
#CSP: benchmark/automata-network/star_asp/star05.lp
#K: 10
#COMMAND: /Users/soh/app/finding_attractors/incremental-finding.sh benchmark/automata-network/star_asp/star05.lp 10
benchmark/automata-network/star_asp/star05.lp 1
-e %----- The attractor computed for benchmark/automata-network/star_asp/star05.lp 
 %----- The size of the attractor = 1 

clingo version 5.4.0
Reading from ...from_paper2017/scripts/fixed-points.lp ...
Solving...
UNSATISFIABLE

Models       : 0
Calls        : 1
Time         : 0.008s (Solving: 0.00s 1st Model: 0.00s Unsat: 0.00s)
CPU Time     : 0.003s
benchmark/automata-network/star_asp/star05.lp 2
-e %----- The attractor computed for benchmark/automata-network/star_asp/star05.lp 
 %----- The size of the attractor = 2 
-e   %----- The attractor computed with Asynchronous Dynamics 

-e CMD: clingo /Users/soh/app/finding_attractors/01_original_from_paper2017/scripts/asynch.lp /Users/soh/app/finding_attractors/02_attractors-new/with-cycle/attractors-preF.lp /Users/soh/app/finding_attractors/02_attractors-new/with-cycle/attractors-postF.lp benchmark/automata-network/star_asp/star05.lp --const n=2 0

clingo version 5.4.0
Reading from ...ginal_from_paper2017/scripts/asynch.lp ...
Solving...
UNSATISFIABLE

Models       : 0
Calls        : 1
Time         : 0.045s (Solving: 0.00s 1st Model: 0.00s Unsat: 0.00s)
CPU Time     : 0.037s
[ Calling Python ]
[ Solving ready ]
*** Found: 0; skipped: 0
benchmark/automata-network/star_asp/star05.lp 3
-e %----- The attractor computed for benchmark/automata-network/star_asp/star05.lp 
 %----- The size of the attractor = 3 
-e   %----- The attractor computed with Asynchronous Dynamics 

-e CMD: clingo /Users/soh/app/finding_attractors/01_original_from_paper2017/scripts/asynch.lp /Users/soh/app/finding_attractors/02_attractors-new/with-cycle/attractors-preF.lp /Users/soh/app/finding_attractors/02_attractors-new/with-cycle/attractors-postF.lp benchmark/automata-network/star_asp/star05.lp --const n=3 0

clingo version 5.4.0
Reading from ...ginal_from_paper2017/scripts/asynch.lp ...
Solving...
UNSATISFIABLE

Models       : 0
Calls        : 1
Time         : 0.048s (Solving: 0.00s 1st Model: 0.00s Unsat: 0.00s)
CPU Time     : 0.042s
[ Calling Python ]
[ Solving ready ]
*** Found: 0; skipped: 0
benchmark/automata-network/star_asp/star05.lp 4
-e %----- The attractor computed for benchmark/automata-network/star_asp/star05.lp 
 %----- The size of the attractor = 4 
-e   %----- The attractor computed with Asynchronous Dynamics 

-e CMD: clingo /Users/soh/app/finding_attractors/01_original_from_paper2017/scripts/asynch.lp /Users/soh/app/finding_attractors/02_attractors-new/with-cycle/attractors-preF.lp /Users/soh/app/finding_attractors/02_attractors-new/with-cycle/attractors-postF.lp benchmark/automata-network/star_asp/star05.lp --const n=4 0

clingo version 5.4.0
Reading from ...ginal_from_paper2017/scripts/asynch.lp ...
Solving...
UNSATISFIABLE

Models       : 0
Calls        : 1
Time         : 0.052s (Solving: 0.00s 1st Model: 0.00s Unsat: 0.00s)
CPU Time     : 0.046s
[ Calling Python ]
[ Solving ready ]
*** Found: 0; skipped: 0
benchmark/automata-network/star_asp/star05.lp 5
-e %----- The attractor computed for benchmark/automata-network/star_asp/star05.lp 
 %----- The size of the attractor = 5 
-e   %----- The attractor computed with Asynchronous Dynamics 

-e CMD: clingo /Users/soh/app/finding_attractors/01_original_from_paper2017/scripts/asynch.lp /Users/soh/app/finding_attractors/02_attractors-new/with-cycle/attractors-preF.lp /Users/soh/app/finding_attractors/02_attractors-new/with-cycle/attractors-postF.lp benchmark/automata-network/star_asp/star05.lp --const n=5 0

clingo version 5.4.0
Reading from ...ginal_from_paper2017/scripts/asynch.lp ...
Solving...
UNSATISFIABLE

Models       : 0
Calls        : 1
Time         : 0.068s (Solving: 0.00s 1st Model: 0.00s Unsat: 0.00s)
CPU Time     : 0.062s
[ Calling Python ]
[ Solving ready ]
*** Found: 0; skipped: 0
benchmark/automata-network/star_asp/star05.lp 6
-e %----- The attractor computed for benchmark/automata-network/star_asp/star05.lp 
 %----- The size of the attractor = 6 
-e   %----- The attractor computed with Asynchronous Dynamics 

-e CMD: clingo /Users/soh/app/finding_attractors/01_original_from_paper2017/scripts/asynch.lp /Users/soh/app/finding_attractors/02_attractors-new/with-cycle/attractors-preF.lp /Users/soh/app/finding_attractors/02_attractors-new/with-cycle/attractors-postF.lp benchmark/automata-network/star_asp/star05.lp --const n=6 0

clingo version 5.4.0
Reading from ...ginal_from_paper2017/scripts/asynch.lp ...
Solving...
UNSATISFIABLE

Models       : 0
Calls        : 1
Time         : 0.087s (Solving: 0.01s 1st Model: 0.00s Unsat: 0.01s)
CPU Time     : 0.081s
[ Calling Python ]
[ Solving ready ]
*** Found: 0; skipped: 0
benchmark/automata-network/star_asp/star05.lp 7
-e %----- The attractor computed for benchmark/automata-network/star_asp/star05.lp 
 %----- The size of the attractor = 7 
-e   %----- The attractor computed with Asynchronous Dynamics 

-e CMD: clingo /Users/soh/app/finding_attractors/01_original_from_paper2017/scripts/asynch.lp /Users/soh/app/finding_attractors/02_attractors-new/with-cycle/attractors-preF.lp /Users/soh/app/finding_attractors/02_attractors-new/with-cycle/attractors-postF.lp benchmark/automata-network/star_asp/star05.lp --const n=7 0

clingo version 5.4.0
Reading from ...ginal_from_paper2017/scripts/asynch.lp ...
Solving...
UNSATISFIABLE

Models       : 0
Calls        : 1
Time         : 0.131s (Solving: 0.02s 1st Model: 0.00s Unsat: 0.02s)
CPU Time     : 0.125s
[ Calling Python ]
[ Solving ready ]
*** Found: 0; skipped: 0
benchmark/automata-network/star_asp/star05.lp 8
-e %----- The attractor computed for benchmark/automata-network/star_asp/star05.lp 
 %----- The size of the attractor = 8 
-e   %----- The attractor computed with Asynchronous Dynamics 

-e CMD: clingo /Users/soh/app/finding_attractors/01_original_from_paper2017/scripts/asynch.lp /Users/soh/app/finding_attractors/02_attractors-new/with-cycle/attractors-preF.lp /Users/soh/app/finding_attractors/02_attractors-new/with-cycle/attractors-postF.lp benchmark/automata-network/star_asp/star05.lp --const n=8 0

clingo version 5.4.0
Reading from ...ginal_from_paper2017/scripts/asynch.lp ...
Solving...
UNSATISFIABLE

Models       : 0
Calls        : 1
Time         : 0.207s (Solving: 0.05s 1st Model: 0.00s Unsat: 0.05s)
CPU Time     : 0.202s
[ Calling Python ]
[ Solving ready ]
*** Found: 0; skipped: 0
benchmark/automata-network/star_asp/star05.lp 9
-e %----- The attractor computed for benchmark/automata-network/star_asp/star05.lp 
 %----- The size of the attractor = 9 
-e   %----- The attractor computed with Asynchronous Dynamics 

-e CMD: clingo /Users/soh/app/finding_attractors/01_original_from_paper2017/scripts/asynch.lp /Users/soh/app/finding_attractors/02_attractors-new/with-cycle/attractors-preF.lp /Users/soh/app/finding_attractors/02_attractors-new/with-cycle/attractors-postF.lp benchmark/automata-network/star_asp/star05.lp --const n=9 0

clingo version 5.4.0
Reading from ...ginal_from_paper2017/scripts/asynch.lp ...
Solving...
UNSATISFIABLE

Models       : 0
Calls        : 1
Time         : 0.404s (Solving: 0.16s 1st Model: 0.00s Unsat: 0.16s)
CPU Time     : 0.399s
[ Calling Python ]
[ Solving ready ]
*** Found: 0; skipped: 0
benchmark/automata-network/star_asp/star05.lp 10
-e %----- The attractor computed for benchmark/automata-network/star_asp/star05.lp 
 %----- The size of the attractor = 10 
-e   %----- The attractor computed with Asynchronous Dynamics 

-e CMD: clingo /Users/soh/app/finding_attractors/01_original_from_paper2017/scripts/asynch.lp /Users/soh/app/finding_attractors/02_attractors-new/with-cycle/attractors-preF.lp /Users/soh/app/finding_attractors/02_attractors-new/with-cycle/attractors-postF.lp benchmark/automata-network/star_asp/star05.lp --const n=10 0

clingo version 5.4.0
Reading from ...ginal_from_paper2017/scripts/asynch.lp ...
Solving...
Answer: 1
active(level("A1",1),10) active(level("A2",1),6) active(level("A3",1),8) active(level("A4",1),4) active(level("A5",1),2) active(level("A1",0),1) active(level("A1",0),2) active(level("A1",0),3) active(level("A1",0),4) active(level("A1",0),5) active(level("A1",0),6) active(level("A1",0),7) active(level("A1",0),8) active(level("A1",0),9) active(level("A2",0),1) active(level("A2",0),2) active(level("A2",0),3) active(level("A2",0),4) active(level("A2",0),5) active(level("A2",0),7) active(level("A2",0),8) active(level("A2",0),9) active(level("A2",0),10) active(level("A3",0),1) active(level("A3",0),2) active(level("A3",0),3) active(level("A3",0),4) active(level("A3",0),5) active(level("A3",0),6) active(level("A3",0),7) active(level("A3",0),9) active(level("A3",0),10) active(level("A4",0),1) active(level("A4",0),2) active(level("A4",0),3) active(level("A4",0),5) active(level("A4",0),6) active(level("A4",0),7) active(level("A4",0),8) active(level("A4",0),9) active(level("A4",0),10) active(level("A5",0),1) active(level("A5",0),3) active(level("A5",0),4) active(level("A5",0),5) active(level("A5",0),6) active(level("A5",0),7) active(level("A5",0),8) active(level("A5",0),9) active(level("A5",0),10) active(level("A5",0),0) active(level("A4",0),0) active(level("A3",0),0) active(level("A2",0),0) active(level("A1",1),0) numberStates(6)
SATISFIABLE

Models       : 1
Calls        : 1
Time         : 0.494s (Solving: 0.03s 1st Model: 0.01s Unsat: 0.02s)
CPU Time     : 0.487s
[ Calling Python ]
[ Solving ready ]
*** New model found! (currently 1 solutions found)
{(0, 0, 1, 0, 0), (0, 0, 0, 0, 1), (0, 1, 0, 0, 0), (0, 0, 0, 0, 0), (0, 0, 0, 1, 0), (1, 0, 0, 0, 0)}
*** Found: 1; skipped: 0
s SATISFIABLE
	Command being timed: "/Users/soh/app/finding_attractors/incremental-finding.sh benchmark/automata-network/star_asp/star05.lp 10"
	User time (seconds): 1.50
	System time (seconds): 0.12
	Percent of CPU this job got: 92%
	Elapsed (wall clock) time (h:mm:ss or m:ss): 0:01.76
	Average shared text size (kbytes): 0
	Average unshared data size (kbytes): 0
	Average stack size (kbytes): 0
	Average total size (kbytes): 0
	Maximum resident set size (kbytes): 92471296
	Average resident set size (kbytes): 0
	Major (requiring I/O) page faults: 0
	Minor (reclaiming a frame) page faults: 37673
	Voluntary context switches: 291
	Involuntary context switches: 590
	Swaps: 0
	File system inputs: 0
	File system outputs: 0
	Socket messages sent: 492
	Socket messages received: 0
	Signals delivered: 1
	Page size (bytes): 4096
	Exit status: 0
FINISHED CPU 1.62 MEM 0 MAXMEM 0 STALE 1
#RESULT: SAT
#FIN: FIN
#CPU: 1.62
#MAXMEM: 0
c 
#END: [Fri Oct 28 11:37:01 2022]
